container_size = [90, 42, 21];
Box = B(1..10);
no_boxes = [21, 30, 28, 19, 41, 26, 23, 25, 20, 17];
box_size =
[|        Length: Width: Height: 
 |  B(1):      9,     5,      2
 |  B(2):      5,     5,      5
 |  B(3):      4,     2,      3
 |  B(4):      4,     3,      3
 |  B(5):      3,     2,      3
 |  B(6):     15,     1,      2
 |  B(7):      6,     4,      2
 |  B(8):      4,     4,      1
 |  B(9):      3,     3,      3
 | B(10):      5,     3,      4
 |];
